100
3474
67 58
91 48
68 140
70 98
73 18
67 25
72 185
68 13
40 159
16 45
87 81
5 191
15 90
38 101
87 149
81 42
14 153
49 75
71 102
6 74
31 69
40 182
45 152
25 134
35 12
66 173
43 107
29 23
26 171
47 191
80 121
43 84
33 66
12 37
93 129
38 153
72 164
36 11
15 30
2 85
89 142
94 56
42 20
7 165
42 82
20 190
11 119
32 52
49 161
40 170
45 27
27 154
43 193
63 182
35 48
44 185
35 131
24 116
32 130
51 136
74 175
8 50
55 156
97 171
37 186
43 19
78 112
97 13
50 197
94 145
78 32
34 28
80 47
1 14
73 69
83 41
53 136
64 42
76 136
97 73
15 166
40 50
7 158
91 164
17 86
75 115
93 60
78 45
70 21
20 187
6 169
55 96
47 30
61 50
3 33
90 137
53 120
33 163
85 88
31 139
